#######################################
### Exact MIP solver for the HHCRSP ###
#######################################
-- Instance file: new-instances/HHCRSP_300_60_6_1.6_R_RC.txt
-- Max threads: 4
-- Time limit: 999999 seconds
-- Use initial solution: No
Trivial flow violations prevented generating 1158472 variables.
Version identifier: 20.1.0.0 | 2020-11-10 | 9bedb6d68
CPXPARAM_Threads                                 4
CPXPARAM_TimeLimit                               999999
Parallel mode: deterministic, using up to 4 threads for concurrent optimization:
 * Starting dual Simplex on 1 thread...
 * Starting Barrier on 3 threads...
Tried aggregator 1 time.
LP Presolve eliminated 48774 rows and 11662 columns.
Reduced LP has 1390512 rows, 1322598 columns, and 31285781 nonzeros.
Presolve time = 32.69 sec. (6890.54 ticks)
Symmetry aggregator did 2292689 additional substitutions.

Iteration log . . .
Iteration:     1   Dual objective     =             0.000000
Iteration:  1349   Dual objective     =           331.000000

Dual crossover.
  Dual:  Fixing 1787 variables.
     1786 DMoves:  Infeasibility  1.33315581e-12  Objective  3.31333333e+02
        0 DMoves:  Infeasibility  6.42708115e-13  Objective  3.31333333e+02
  Dual:  Pushed 18, exchanged 1769.
  Primal:  Fixing 1580 variables.
     1579 PMoves:  Infeasibility  6.66133815e-16  Objective  3.31333333e+02
        0 PMoves:  Infeasibility  1.77635684e-15  Objective  3.31333333e+02
  Primal:  Pushed 1410, exchanged 170.

Dual simplex solved model.


Solution status from MIP model:
-- Processing time: 57.584 sec.
-- Memory used: 1256.77 MB
-- Best bound: inf
-- Obj value: 331.333
-- Gap: inf%
-- Total distance: 994
-- Total tardiness: 0
-- Largest tardiness: 0
